Route #1: 29 51 5 8 27 10 44
Route #2: 47 37 35 33 7 43 2
Route #3: 48 38 34 32 19 15 13 46 16 9
Route #4: 26 22 49 17 50 12 23 45 4
Route #5: 41 6 36 1 20 42
Route #6: 40 18 30 3 28 31 24 39 14 21 11
Route #7: 25
Cost 760